Set parameter TokenServer to value "hpc-licenses.hpcc.usc.edu"
Set parameter TimeLimit to value 3600
Gurobi Optimizer version 9.5.1 build v9.5.1rc2 (linux64)
Thread count: 20 physical cores, 20 logical processors, using up to 20 threads
Optimize a model with 6007 rows, 4529 columns and 24534 nonzeros
Model fingerprint: 0x6af39b84
Variable types: 4506 continuous, 23 integer (23 binary)
Coefficient statistics:
  Matrix range     [1e+00, 1e+00]
  Objective range  [3e-06, 1e+00]
  Bounds range     [1e+00, 1e+00]
  RHS range        [1e+00, 2e+02]
Presolve removed 1520 rows and 1515 columns
Presolve time: 0.10s
Presolved: 4487 rows, 3014 columns, 21975 nonzeros
Variable types: 2994 continuous, 20 integer (20 binary)
Found heuristic solution: objective 263.4008443
Found heuristic solution: objective 263.8387330

Root relaxation: objective 2.776895e+02, 2887 iterations, 0.14 seconds (0.12 work units)

    Nodes    |    Current Node    |     Objective Bounds      |     Work
 Expl Unexpl |  Obj  Depth IntInf | Incumbent    BestBd   Gap | It/Node Time

     0     0  277.68948    0    2  263.83873  277.68948  5.25%     -    0s
     0     0  277.59137    0    2  263.83873  277.59137  5.21%     -    0s
H    0     0                     264.6744422  276.60210  4.51%     -    0s
     0     0  276.60210    0    2  264.67444  276.60210  4.51%     -    0s
     0     0  275.39307    0    3  264.67444  275.39307  4.05%     -    0s
     0     0  275.39307    0    5  264.67444  275.39307  4.05%     -    0s
     0     0  275.39307    0    4  264.67444  275.39307  4.05%     -    0s
     0     0  275.39307    0    2  264.67444  275.39307  4.05%     -    0s
H    0     0                     266.0256588  275.36918  3.51%     -    0s
H    0     0                     270.2794691  275.36918  1.88%     -    0s
     0     0  274.53380    0    5  270.27947  274.53380  1.57%     -    0s
     0     0  274.53380    0    7  270.27947  274.53380  1.57%     -    0s
     0     0  274.53380    0    6  270.27947  274.53380  1.57%     -    0s
     0     0  273.87959    0    2  270.27947  273.87959  1.33%     -    0s
     0     0  273.87959    0    2  270.27947  273.87959  1.33%     -    0s
     0     0  273.75736    0    5  270.27947  273.75736  1.29%     -    1s
     0     0  273.75736    0    2  270.27947  273.75736  1.29%     -    1s
     0     0  273.75736    0    2  270.27947  273.75736  1.29%     -    1s
     0     0  273.75736    0    3  270.27947  273.75736  1.29%     -    2s
     0     0  273.75736    0    4  270.27947  273.75736  1.29%     -    2s
     0     0  273.75736    0    5  270.27947  273.75736  1.29%     -    2s
     0     0  273.75736    0    5  270.27947  273.75736  1.29%     -    2s
     0     0  273.75736    0    7  270.27947  273.75736  1.29%     -    2s
     0     0  273.75736    0    5  270.27947  273.75736  1.29%     -    2s
     0     0  273.75736    0    5  270.27947  273.75736  1.29%     -    2s
     0     0  273.75736    0    5  270.27947  273.75736  1.29%     -    2s
H    0     0                     272.1858722  273.75736  0.58%     -    2s
     0     0  273.40533    0    3  272.18587  273.40533  0.45%     -    3s
     0     0  273.40533    0    3  272.18587  273.40533  0.45%     -    3s
     0     2  273.40533    0    3  272.18587  273.40533  0.45%     -    3s
*   13     2               7     272.8470440  273.04081  0.07%   190    4s

Cutting planes:
  Gomory: 3
  MIR: 557
  Flow cover: 106
  RLT: 10
  Relax-and-lift: 5

Explored 17 nodes (10724 simplex iterations) in 4.79 seconds (2.76 work units)
Thread count was 20 (of 20 available processors)

Solution count 7: 272.847 272.186 270.279 ... 263.401

Optimal solution found (tolerance 1.00e-04)
Best objective 2.728470439887e+02, best bound 2.728470439887e+02, gap 0.0000%



#########node  1
V1.6
#########node  2
0.08163265306122447,0.9183673469387755
#########node  3
1.0,0.0


Total Solving Time 5.159658432006836
obj value 272.8470439887111
Policy Regret train (Sum) 7.333573780976075
Best Treatment Found train (%) 64.2
treatment classification acc train (%) 20.200000000000003
Policy Regret test (Sum) 28.73848887990478
Best Treatment Found test (%) 83.74000000000001
treatment classification acc test (%) 17.8
